Using license file /home/benedond/gurobi.lic
Using gurobi.env file
Set parameter Threads to value 1
Academic license - for non-commercial use only
Changed value of parameter TimeLimit to 300.0
   Prev: inf  Min: 0.0  Max: inf  Default: inf
Gurobi Optimizer version 9.0.1 build v9.0.1rc0 (linux64)
Optimize a model with 880 rows, 820 columns and 3258 nonzeros
Model fingerprint: 0x556945d0
Variable types: 20 continuous, 800 integer (800 binary)
Coefficient statistics:
  Matrix range     [1e+00, 5e+02]
  Objective range  [4e+01, 5e+02]
  Bounds range     [1e+00, 1e+00]
  RHS range        [1e+00, 1e+03]
Presolve removed 546 rows and 525 columns
Presolve time: 0.17s
Presolved: 334 rows, 295 columns, 2279 nonzeros
Variable types: 19 continuous, 276 integer (276 binary)

Root relaxation: objective 3.731000e+03, 177 iterations, 0.00 seconds

    Nodes    |    Current Node    |     Objective Bounds      |     Work
 Expl Unexpl |  Obj  Depth IntInf | Incumbent    BestBd   Gap | It/Node Time

     0     0 3731.00000    0   20          - 3731.00000      -     -    0s
H    0     0                    3489.0000000 3731.00000  6.94%     -    0s
     0     0 3731.00000    0   28 3489.00000 3731.00000  6.94%     -    0s
H    0     0                    3522.0000000 3731.00000  5.93%     -    0s
H    0     0                    3536.0000000 3731.00000  5.51%     -    0s
     0     0 3731.00000    0   18 3536.00000 3731.00000  5.51%     -    0s
     0     0 3731.00000    0   18 3536.00000 3731.00000  5.51%     -    0s
     0     0 3731.00000    0   21 3536.00000 3731.00000  5.51%     -    0s
H    0     0                    3546.0000000 3731.00000  5.22%     -    0s
     0     0 3731.00000    0   24 3546.00000 3731.00000  5.22%     -    0s
H    0     0                    3571.0000000 3731.00000  4.48%     -    0s
     0     0 3731.00000    0   23 3571.00000 3731.00000  4.48%     -    0s
     0     0 3731.00000    0   24 3571.00000 3731.00000  4.48%     -    0s
     0     0 3731.00000    0   14 3571.00000 3731.00000  4.48%     -    0s
     0     2 3731.00000    0   14 3571.00000 3731.00000  4.48%     -    0s
H   55    28                    3662.0000000 3731.00000  1.88%  14.0    0s
  5102   912 3717.42424   24   14 3662.00000 3731.00000  1.88%  15.4    5s
* 9164     1              51    3699.0000000 3699.00000  0.00%  14.3    8s

Cutting planes:
  Gomory: 2
  Cover: 3
  MIR: 1
  Flow cover: 6
  GUB cover: 3
  Relax-and-lift: 1

Explored 9165 nodes (132975 simplex iterations) in 8.42 seconds
Thread count was 1 (of 4 available processors)

Solution count 7: 3699 3662 3571 ... 3489

Optimal solution found (tolerance 1.00e-04)
Best objective 3.699000000000e+03, best bound 3.699000000000e+03, gap 0.0000%
